c colouring generated by benchmark framework
p edge 250 3218
v 1 0
v 2 2
v 3 8
v 4 10
v 5 7
v 6 3
v 7 11
v 8 7
v 9 1
v 10 4
v 11 0
v 12 8
v 13 3
v 14 3
v 15 0
v 16 3
v 17 1
v 18 3
v 19 2
v 20 9
v 21 9
v 22 0
v 23 5
v 24 11
v 25 4
v 26 2
v 27 7
v 28 10
v 29 9
v 30 1
v 31 9
v 32 4
v 33 6
v 34 1
v 35 2
v 36 11
v 37 7
v 38 2
v 39 5
v 40 7
v 41 1
v 42 0
v 43 3
v 44 1
v 45 10
v 46 6
v 47 0
v 48 6
v 49 5
v 50 0
v 51 4
v 52 3
v 53 7
v 54 6
v 55 1
v 56 5
v 57 9
v 58 3
v 59 7
v 60 7
v 61 0
v 62 0
v 63 1
v 64 1
v 65 10
v 66 9
v 67 6
v 68 2
v 69 3
v 70 6
v 71 5
v 72 4
v 73 9
v 74 1
v 75 2
v 76 8
v 77 7
v 78 10
v 79 8
v 80 10
v 81 0
v 82 6
v 83 2
v 84 3
v 85 9
v 86 8
v 87 10
v 88 8
v 89 2
v 90 6
v 91 7
v 92 4
v 93 10
v 94 11
v 95 3
v 96 6
v 97 11
v 98 11
v 99 10
v 100 8
v 101 4
v 102 9
v 103 10
v 104 3
v 105 2
v 106 2
v 107 9
v 108 1
v 109 11
v 110 11
v 111 11
v 112 6
v 113 3
v 114 10
v 115 6
v 116 11
v 117 1
v 118 9
v 119 6
v 120 0
v 121 2
v 122 5
v 123 7
v 124 3
v 125 6
v 126 5
v 127 8
v 128 4
v 129 11
v 130 0
v 131 10
v 132 8
v 133 5
v 134 2
v 135 1
v 136 8
v 137 1
v 138 6
v 139 0
v 140 9
v 141 5
v 142 10
v 143 5
v 144 2
v 145 9
v 146 7
v 147 8
v 148 0
v 149 8
v 150 10
v 151 7
v 152 5
v 153 6
v 154 9
v 155 5
v 156 10
v 157 3
v 158 9
v 159 9
v 160 7
v 161 1
v 162 8
v 163 11
v 164 11
v 165 1
v 166 6
v 167 2
v 168 7
v 169 10
v 170 4
v 171 7
v 172 10
v 173 8
v 174 11
v 175 0
v 176 9
v 177 4
v 178 4
v 179 4
v 180 4
v 181 9
v 182 5
v 183 4
v 184 1
v 185 8
v 186 2
v 187 5
v 188 4
v 189 11
v 190 4
v 191 11
v 192 4
v 193 5
v 194 4
v 195 9
v 196 6
v 197 8
v 198 10
v 199 5
v 200 5
v 201 7
v 202 4
v 203 6
v 204 4
v 205 3
v 206 7
v 207 8
v 208 8
v 209 5
v 210 0
v 211 4
v 212 0
v 213 4
v 214 3
v 215 9
v 216 1
v 217 6
v 218 5
v 219 3
v 220 2
v 221 0
v 222 2
v 223 8
v 224 8
v 225 10
v 226 5
v 227 8
v 228 5
v 229 0
v 230 4
v 231 4
v 232 3
v 233 11
v 234 0
v 235 3
v 236 11
v 237 8
v 238 11
v 239 0
v 240 10
v 241 5
v 242 3
v 243 11
v 244 5
v 245 8
v 246 4
v 247 0
v 248 5
v 249 0
v 250 7
